p cnf 430 1488
-191 -113 0
-191 174 0
-191 -125 0
-191 -15 0
-191 50 0
191 113 -174 125 15 -50 0
-192 -77 0
-192 -32 0
-192 139 0
-192 -141 0
-192 118 0
192 77 32 -139 141 -118 0
-193 -98 0
-193 78 0
-193 124 0
-193 -11 0
-193 70 0
193 98 -78 -124 11 -70 0
-194 -99 0
-194 -83 0
-194 52 0
-194 64 0
-194 185 0
194 99 83 -52 -64 -185 0
-195 27 0
-195 -36 0
-195 -126 0
-195 -141 0
-195 -28 0
195 -27 36 126 141 28 0
191 192 193 194 195 0
-196 102 0
-196 -63 0
-196 -31 0
-196 27 0
-196 17 0
196 -102 63 31 -27 -17 0
-197 -69 0
-197 38 0
-197 159 0
-197 -46 0
-197 102 0
197 69 -38 -159 46 -102 0
-198 -30 0
-198 73 0
-198 90 0
-198 141 0
-198 151 0
198 30 -73 -90 -141 -151 0
-199 12 0
-199 14 0
-199 -69 0
-199 142 0
-199 44 0
199 -12 -14 69 -142 -44 0
-200 134 0
-200 114 0
-200 -99 0
-200 15 0
-200 65 0
200 -134 -114 99 -15 -65 0
196 197 198 199 200 0
-201 52 0
-201 -60 0
-201 111 0
-201 -83 0
-201 158 0
201 -52 60 -111 83 -158 0
-202 -39 0
-202 -119 0
-202 160 0
-202 190 0
-202 189 0
202 39 119 -160 -190 -189 0
-203 122 0
-203 42 0
-203 183 0
-203 163 0
-203 25 0
203 -122 -42 -183 -163 -25 0
-204 -174 0
-204 149 0
-204 13 0
-204 123 0
-204 -48 0
204 174 -149 -13 -123 48 0
-205 -7 0
-205 60 0
-205 -164 0
-205 -93 0
-205 38 0
205 7 -60 164 93 -38 0
201 202 203 204 205 0
-206 -182 0
-206 134 0
-206 -80 0
-206 136 0
-206 52 0
206 182 -134 80 -136 -52 0
-207 -86 0
-207 -132 0
-207 -183 0
-207 25 0
-207 -30 0
207 86 132 183 -25 30 0
-208 178 0
-208 -134 0
-208 -32 0
-208 174 0
-208 144 0
208 -178 134 32 -174 -144 0
-209 -4 0
-209 -71 0
-209 -41 0
-209 145 0
-209 97 0
209 4 71 41 -145 -97 0
-210 -32 0
-210 -70 0
-210 -154 0
-210 -157 0
-210 69 0
210 32 70 154 157 -69 0
206 207 208 209 210 0
-211 175 0
-211 17 0
-211 -115 0
-211 114 0
-211 -8 0
211 -175 -17 115 -114 8 0
-212 -9 0
-212 46 0
-212 69 0
-212 141 0
-212 40 0
212 9 -46 -69 -141 -40 0
-213 -2 0
-213 -137 0
-213 -121 0
-213 -43 0
-213 -9 0
213 2 137 121 43 9 0
-214 87 0
-214 79 0
-214 175 0
-214 -130 0
-214 -133 0
214 -87 -79 -175 130 133 0
-215 40 0
-215 -167 0
-215 126 0
-215 -41 0
-215 180 0
215 -40 167 -126 41 -180 0
211 212 213 214 215 0
-216 -186 0
-216 82 0
-216 183 0
-216 182 0
-216 -153 0
216 186 -82 -183 -182 153 0
-217 -125 0
-217 94 0
-217 -167 0
-217 -188 0
-217 44 0
217 125 -94 167 188 -44 0
-218 -26 0
-218 72 0
-218 74 0
-218 -116 0
-218 -76 0
218 26 -72 -74 116 76 0
-219 -32 0
-219 -38 0
-219 164 0
-219 -81 0
-219 43 0
219 32 38 -164 81 -43 0
-220 163 0
-220 187 0
-220 30 0
-220 -47 0
-220 -98 0
220 -163 -187 -30 47 98 0
216 217 218 219 220 0
-221 181 0
-221 67 0
-221 -21 0
-221 -23 0
-221 -76 0
221 -181 -67 21 23 76 0
-222 -91 0
-222 112 0
-222 -27 0
-222 116 0
-222 -174 0
222 91 -112 27 -116 174 0
-223 92 0
-223 -29 0
-223 -114 0
-223 120 0
-223 -81 0
223 -92 29 114 -120 81 0
-224 -85 0
-224 14 0
-224 -114 0
-224 -157 0
-224 122 0
224 85 -14 114 157 -122 0
-225 -21 0
-225 18 0
-225 188 0
-225 -5 0
-225 67 0
225 21 -18 -188 5 -67 0
221 222 223 224 225 0
-226 161 0
-226 169 0
-226 -64 0
-226 -94 0
-226 -126 0
226 -161 -169 64 94 126 0
-227 -151 0
-227 -43 0
-227 -157 0
-227 -149 0
-227 6 0
227 151 43 157 149 -6 0
-228 -83 0
-228 20 0
-228 -77 0
-228 -168 0
-228 106 0
228 83 -20 77 168 -106 0
-229 166 0
-229 12 0
-229 78 0
-229 -91 0
-229 188 0
229 -166 -12 -78 91 -188 0
-230 -116 0
-230 -104 0
-230 39 0
-230 13 0
-230 -1 0
230 116 104 -39 -13 1 0
226 227 228 229 230 0
-231 178 0
-231 143 0
-231 146 0
-231 -49 0
-231 -160 0
231 -178 -143 -146 49 160 0
-232 179 0
-232 167 0
-232 132 0
-232 5 0
-232 78 0
232 -179 -167 -132 -5 -78 0
-233 -74 0
-233 -95 0
-233 188 0
-233 18 0
-233 -33 0
233 74 95 -188 -18 33 0
-234 108 0
-234 156 0
-234 -11 0
-234 47 0
-234 -23 0
234 -108 -156 11 -47 23 0
-235 -121 0
-235 -170 0
-235 -35 0
-235 107 0
-235 77 0
235 121 170 35 -107 -77 0
231 232 233 234 235 0
-236 180 0
-236 -154 0
-236 151 0
-236 -123 0
-236 -85 0
236 -180 154 -151 123 85 0
-237 101 0
-237 -166 0
-237 162 0
-237 8 0
-237 -22 0
237 -101 166 -162 -8 22 0
-238 19 0
-238 62 0
-238 186 0
-238 -111 0
-238 -34 0
238 -19 -62 -186 111 34 0
-239 114 0
-239 69 0
-239 66 0
-239 -20 0
-239 -95 0
239 -114 -69 -66 20 95 0
-240 -53 0
-240 32 0
-240 85 0
-240 -52 0
-240 71 0
240 53 -32 -85 52 -71 0
236 237 238 239 240 0
-241 -144 0
-241 -38 0
-241 105 0
-241 73 0
-241 -119 0
241 144 38 -105 -73 119 0
-242 -90 0
-242 -52 0
-242 47 0
-242 -185 0
-242 -188 0
242 90 52 -47 185 188 0
-243 4 0
-243 188 0
-243 145 0
-243 127 0
-243 182 0
243 -4 -188 -145 -127 -182 0
-244 48 0
-244 -148 0
-244 -123 0
-244 140 0
-244 2 0
244 -48 148 123 -140 -2 0
-245 -134 0
-245 -173 0
-245 -4 0
-245 34 0
-245 22 0
245 134 173 4 -34 -22 0
241 242 243 244 245 0
-246 -47 0
-246 151 0
-246 -189 0
-246 -190 0
-246 -83 0
246 47 -151 189 190 83 0
-247 -99 0
-247 186 0
-247 -44 0
-247 -112 0
-247 -21 0
247 99 -186 44 112 21 0
-248 -12 0
-248 -169 0
-248 -86 0
-248 -24 0
-248 130 0
248 12 169 86 24 -130 0
-249 30 0
-249 59 0
-249 -101 0
-249 47 0
-249 10 0
249 -30 -59 101 -47 -10 0
-250 41 0
-250 -112 0
-250 -172 0
-250 32 0
-250 132 0
250 -41 112 172 -32 -132 0
246 247 248 249 250 0
-251 -98 0
-251 -116 0
-251 -173 0
-251 115 0
-251 166 0
251 98 116 173 -115 -166 0
-252 -29 0
-252 34 0
-252 -189 0
-252 -152 0
-252 -32 0
252 29 -34 189 152 32 0
-253 3 0
-253 -7 0
-253 -123 0
-253 -32 0
-253 104 0
253 -3 7 123 32 -104 0
-254 -5 0
-254 -171 0
-254 -97 0
-254 133 0
-254 -113 0
254 5 171 97 -133 113 0
-255 -55 0
-255 -17 0
-255 -68 0
-255 -76 0
-255 -130 0
255 55 17 68 76 130 0
251 252 253 254 255 0
-256 15 0
-256 28 0
-256 97 0
-256 -37 0
-256 -88 0
256 -15 -28 -97 37 88 0
-257 -5 0
-257 -171 0
-257 135 0
-257 -187 0
-257 157 0
257 5 171 -135 187 -157 0
-258 51 0
-258 -31 0
-258 -118 0
-258 -175 0
-258 3 0
258 -51 31 118 175 -3 0
-259 -31 0
-259 111 0
-259 189 0
-259 -88 0
-259 -116 0
259 31 -111 -189 88 116 0
-260 -125 0
-260 84 0
-260 -35 0
-260 -41 0
-260 93 0
260 125 -84 35 41 -93 0
256 257 258 259 260 0
-261 -25 0
-261 -46 0
-261 2 0
-261 67 0
-261 175 0
261 25 46 -2 -67 -175 0
-262 111 0
-262 -145 0
-262 -6 0
-262 -182 0
-262 162 0
262 -111 145 6 182 -162 0
-263 -85 0
-263 119 0
-263 157 0
-263 -178 0
-263 60 0
263 85 -119 -157 178 -60 0
-264 -107 0
-264 187 0
-264 70 0
-264 120 0
-264 -72 0
264 107 -187 -70 -120 72 0
-265 71 0
-265 6 0
-265 -59 0
-265 -30 0
-265 156 0
265 -71 -6 59 30 -156 0
261 262 263 264 265 0
-266 26 0
-266 -136 0
-266 -100 0
-266 -187 0
-266 -169 0
266 -26 136 100 187 169 0
-267 109 0
-267 -5 0
-267 -101 0
-267 80 0
-267 -91 0
267 -109 5 101 -80 91 0
-268 102 0
-268 107 0
-268 170 0
-268 -41 0
-268 122 0
268 -102 -107 -170 41 -122 0
-269 -128 0
-269 -42 0
-269 20 0
-269 15 0
-269 79 0
269 128 42 -20 -15 -79 0
-270 5 0
-270 162 0
-270 -9 0
-270 42 0
-270 79 0
270 -5 -162 9 -42 -79 0
266 267 268 269 270 0
-271 -164 0
-271 -8 0
-271 -142 0
-271 -28 0
-271 92 0
271 164 8 142 28 -92 0
-272 -131 0
-272 -84 0
-272 -154 0
-272 -73 0
-272 14 0
272 131 84 154 73 -14 0
-273 84 0
-273 -126 0
-273 -55 0
-273 -136 0
-273 -133 0
273 -84 126 55 136 133 0
-274 -121 0
-274 -155 0
-274 87 0
-274 -98 0
-274 -99 0
274 121 155 -87 98 99 0
-275 -165 0
-275 64 0
-275 91 0
-275 -78 0
-275 160 0
275 165 -64 -91 78 -160 0
271 272 273 274 275 0
-276 -33 0
-276 105 0
-276 101 0
-276 12 0
-276 -69 0
276 33 -105 -101 -12 69 0
-277 -44 0
-277 121 0
-277 92 0
-277 108 0
-277 186 0
277 44 -121 -92 -108 -186 0
-278 55 0
-278 -69 0
-278 12 0
-278 48 0
-278 63 0
278 -55 69 -12 -48 -63 0
-279 162 0
-279 63 0
-279 93 0
-279 41 0
-279 185 0
279 -162 -63 -93 -41 -185 0
-280 98 0
-280 174 0
-280 1 0
-280 -143 0
-280 97 0
280 -98 -174 -1 143 -97 0
276 277 278 279 280 0
-281 -179 0
-281 45 0
-281 -188 0
-281 -12 0
-281 114 0
281 179 -45 188 12 -114 0
-282 -33 0
-282 160 0
-282 -78 0
-282 -36 0
-282 -116 0
282 33 -160 78 36 116 0
-283 -107 0
-283 181 0
-283 -5 0
-283 116 0
-283 14 0
283 107 -181 5 -116 -14 0
-284 56 0
-284 -48 0
-284 107 0
-284 -11 0
-284 95 0
284 -56 48 -107 11 -95 0
-285 102 0
-285 -144 0
-285 -176 0
-285 44 0
-285 185 0
285 -102 144 176 -44 -185 0
281 282 283 284 285 0
-286 -29 0
-286 -136 0
-286 8 0
-286 -39 0
-286 -113 0
286 29 136 -8 39 113 0
-287 156 0
-287 109 0
-287 74 0
-287 182 0
-287 36 0
287 -156 -109 -74 -182 -36 0
-288 -68 0
-288 -40 0
-288 113 0
-288 97 0
-288 -100 0
288 68 40 -113 -97 100 0
-289 -159 0
-289 133 0
-289 136 0
-289 -3 0
-289 -114 0
289 159 -133 -136 3 114 0
-290 -82 0
-290 -105 0
-290 -92 0
-290 -1 0
-290 -125 0
290 82 105 92 1 125 0
286 287 288 289 290 0
-291 190 0
-291 -2 0
-291 70 0
-291 6 0
-291 72 0
291 -190 2 -70 -6 -72 0
-292 -68 0
-292 -31 0
-292 89 0
-292 113 0
-292 -172 0
292 68 31 -89 -113 172 0
-293 -95 0
-293 -56 0
-293 -121 0
-293 -122 0
-293 -101 0
293 95 56 121 122 101 0
-294 89 0
-294 -104 0
-294 -54 0
-294 -151 0
-294 -172 0
294 -89 104 54 151 172 0
-295 -182 0
-295 -58 0
-295 -167 0
-295 127 0
-295 -138 0
295 182 58 167 -127 138 0
291 292 293 294 295 0
-296 -32 0
-296 158 0
-296 -105 0
-296 -131 0
-296 -100 0
296 32 -158 105 131 100 0
-297 -44 0
-297 36 0
-297 186 0
-297 -155 0
-297 -138 0
297 44 -36 -186 155 138 0
-298 87 0
-298 21 0
-298 -175 0
-298 -152 0
-298 -114 0
298 -87 -21 175 152 114 0
-299 -128 0
-299 -112 0
-299 -21 0
-299 83 0
-299 10 0
299 128 112 21 -83 -10 0
-300 147 0
-300 7 0
-300 -142 0
-300 54 0
-300 -28 0
300 -147 -7 142 -54 28 0
296 297 298 299 300 0
-301 101 0
-301 110 0
-301 17 0
-301 105 0
-301 -169 0
301 -101 -110 -17 -105 169 0
-302 171 0
-302 -90 0
-302 -61 0
-302 -86 0
-302 13 0
302 -171 90 61 86 -13 0
-303 -47 0
-303 7 0
-303 -49 0
-303 15 0
-303 -93 0
303 47 -7 49 -15 93 0
-304 72 0
-304 -58 0
-304 -33 0
-304 175 0
-304 -97 0
304 -72 58 33 -175 97 0
-305 -84 0
-305 161 0
-305 59 0
-305 -113 0
-305 -168 0
305 84 -161 -59 113 168 0
301 302 303 304 305 0
-306 -17 0
-306 118 0
-306 -113 0
-306 37 0
-306 -87 0
306 17 -118 113 -37 87 0
-307 -153 0
-307 70 0
-307 -173 0
-307 60 0
-307 -163 0
307 153 -70 173 -60 163 0
-308 -50 0
-308 -27 0
-308 -177 0
-308 118 0
-308 -48 0
308 50 27 177 -118 48 0
-309 164 0
-309 117 0
-309 123 0
-309 59 0
-309 -185 0
309 -164 -117 -123 -59 185 0
-310 21 0
-310 24 0
-310 18 0
-310 -179 0
-310 -171 0
310 -21 -24 -18 179 171 0
306 307 308 309 310 0
-311 -159 0
-311 -25 0
-311 -113 0
-311 171 0
-311 -108 0
311 159 25 113 -171 108 0
-312 -162 0
-312 -41 0
-312 -166 0
-312 -109 0
-312 -182 0
312 162 41 166 109 182 0
-313 -118 0
-313 95 0
-313 -174 0
-313 71 0
-313 -88 0
313 118 -95 174 -71 88 0
-314 -26 0
-314 52 0
-314 -43 0
-314 84 0
-314 22 0
314 26 -52 43 -84 -22 0
-315 144 0
-315 63 0
-315 19 0
-315 120 0
-315 -108 0
315 -144 -63 -19 -120 108 0
311 312 313 314 315 0
-316 -42 0
-316 -55 0
-316 -66 0
-316 21 0
-316 186 0
316 42 55 66 -21 -186 0
-317 142 0
-317 -98 0
-317 24 0
-317 88 0
-317 -28 0
317 -142 98 -24 -88 28 0
-318 62 0
-318 -36 0
-318 -46 0
-318 73 0
-318 2 0
318 -62 36 46 -73 -2 0
-319 160 0
-319 124 0
-319 -48 0
-319 174 0
-319 -42 0
319 -160 -124 48 -174 42 0
-320 -154 0
-320 -40 0
-320 133 0
-320 -163 0
-320 137 0
320 154 40 -133 163 -137 0
316 317 318 319 320 0
-321 121 0
-321 127 0
-321 109 0
-321 25 0
-321 44 0
321 -121 -127 -109 -25 -44 0
-322 90 0
-322 53 0
-322 -11 0
-322 -188 0
-322 179 0
322 -90 -53 11 188 -179 0
-323 -26 0
-323 -96 0
-323 183 0
-323 -49 0
-323 -142 0
323 26 96 -183 49 142 0
-324 29 0
-324 -31 0
-324 -59 0
-324 -172 0
-324 -159 0
324 -29 31 59 172 159 0
-325 -78 0
-325 35 0
-325 -174 0
-325 105 0
-325 10 0
325 78 -35 174 -105 -10 0
321 322 323 324 325 0
-326 178 0
-326 -91 0
-326 -172 0
-326 -89 0
-326 84 0
326 -178 91 172 89 -84 0
-327 -179 0
-327 -131 0
-327 -134 0
-327 1 0
-327 -39 0
327 179 131 134 -1 39 0
-328 -109 0
-328 63 0
-328 -134 0
-328 5 0
-328 -3 0
328 109 -63 134 -5 3 0
-329 186 0
-329 -112 0
-329 136 0
-329 109 0
-329 -63 0
329 -186 112 -136 -109 63 0
-330 142 0
-330 104 0
-330 -190 0
-330 -162 0
-330 183 0
330 -142 -104 190 162 -183 0
326 327 328 329 330 0
-331 -153 0
-331 -37 0
-331 103 0
-331 152 0
-331 -143 0
331 153 37 -103 -152 143 0
-332 -131 0
-332 -158 0
-332 -9 0
-332 -112 0
-332 122 0
332 131 158 9 112 -122 0
-333 -92 0
-333 26 0
-333 102 0
-333 158 0
-333 78 0
333 92 -26 -102 -158 -78 0
-334 120 0
-334 26 0
-334 -155 0
-334 -93 0
-334 -115 0
334 -120 -26 155 93 115 0
-335 -165 0
-335 172 0
-335 -72 0
-335 -109 0
-335 -34 0
335 165 -172 72 109 34 0
331 332 333 334 335 0
-336 146 0
-336 -131 0
-336 -62 0
-336 -77 0
-336 -1 0
336 -146 131 62 77 1 0
-337 156 0
-337 -20 0
-337 163 0
-337 -140 0
-337 59 0
337 -156 20 -163 140 -59 0
-338 -66 0
-338 -133 0
-338 3 0
-338 101 0
-338 -115 0
338 66 133 -3 -101 115 0
-339 130 0
-339 132 0
-339 -10 0
-339 110 0
-339 44 0
339 -130 -132 10 -110 -44 0
-340 135 0
-340 -22 0
-340 169 0
-340 -158 0
-340 -111 0
340 -135 22 -169 158 111 0
336 337 338 339 340 0
-341 -5 0
-341 -87 0
-341 -14 0
-341 -49 0
-341 71 0
341 5 87 14 49 -71 0
-342 -8 0
-342 111 0
-342 166 0
-342 69 0
-342 -181 0
342 8 -111 -166 -69 181 0
-343 -160 0
-343 -65 0
-343 92 0
-343 93 0
-343 103 0
343 160 65 -92 -93 -103 0
-344 -18 0
-344 152 0
-344 -184 0
-344 101 0
-344 -112 0
344 18 -152 184 -101 112 0
-345 66 0
-345 -130 0
-345 22 0
-345 -109 0
-345 69 0
345 -66 130 -22 109 -69 0
341 342 343 344 345 0
-346 92 0
-346 -122 0
-346 -186 0
-346 -168 0
-346 -39 0
346 -92 122 186 168 39 0
-347 98 0
-347 169 0
-347 -184 0
-347 -73 0
-347 -16 0
347 -98 -169 184 73 16 0
-348 -52 0
-348 35 0
-348 -108 0
-348 -14 0
-348 -49 0
348 52 -35 108 14 49 0
-349 4 0
-349 188 0
-349 54 0
-349 190 0
-349 119 0
349 -4 -188 -54 -190 -119 0
-350 58 0
-350 -169 0
-350 180 0
-350 -148 0
-350 -151 0
350 -58 169 -180 148 151 0
346 347 348 349 350 0
-351 -118 0
-351 -76 0
-351 -134 0
-351 -14 0
-351 73 0
351 118 76 134 14 -73 0
-352 11 0
-352 21 0
-352 -59 0
-352 108 0
-352 187 0
352 -11 -21 59 -108 -187 0
-353 161 0
-353 22 0
-353 -90 0
-353 -9 0
-353 18 0
353 -161 -22 90 9 -18 0
-354 149 0
-354 151 0
-354 141 0
-354 -68 0
-354 67 0
354 -149 -151 -141 68 -67 0
-355 -31 0
-355 -92 0
-355 47 0
-355 44 0
-355 134 0
355 31 92 -47 -44 -134 0
351 352 353 354 355 0
-356 77 0
-356 95 0
-356 119 0
-356 -156 0
-356 -64 0
356 -77 -95 -119 156 64 0
-357 -46 0
-357 -54 0
-357 -39 0
-357 -79 0
-357 167 0
357 46 54 39 79 -167 0
-358 145 0
-358 -117 0
-358 -137 0
-358 21 0
-358 183 0
358 -145 117 137 -21 -183 0
-359 -76 0
-359 -118 0
-359 173 0
-359 -163 0
-359 -128 0
359 76 118 -173 163 128 0
-360 -85 0
-360 -20 0
-360 58 0
-360 -156 0
-360 -116 0
360 85 20 -58 156 116 0
356 357 358 359 360 0
-361 -120 0
-361 39 0
-361 129 0
-361 96 0
-361 -99 0
361 120 -39 -129 -96 99 0
-362 -108 0
-362 -140 0
-362 66 0
-362 174 0
-362 -19 0
362 108 140 -66 -174 19 0
-363 175 0
-363 173 0
-363 172 0
-363 152 0
-363 -136 0
363 -175 -173 -172 -152 136 0
-364 -75 0
-364 -34 0
-364 -12 0
-364 -105 0
-364 -110 0
364 75 34 12 105 110 0
-365 -136 0
-365 148 0
-365 164 0
-365 28 0
-365 46 0
365 136 -148 -164 -28 -46 0
361 362 363 364 365 0
-366 11 0
-366 66 0
-366 -48 0
-366 -72 0
-366 -101 0
366 -11 -66 48 72 101 0
-367 -128 0
-367 169 0
-367 -35 0
-367 189 0
-367 -34 0
367 128 -169 35 -189 34 0
-368 26 0
-368 8 0
-368 -46 0
-368 -79 0
-368 -128 0
368 -26 -8 46 79 128 0
-369 -81 0
-369 153 0
-369 7 0
-369 31 0
-369 47 0
369 81 -153 -7 -31 -47 0
-370 7 0
-370 140 0
-370 87 0
-370 -141 0
-370 -4 0
370 -7 -140 -87 141 4 0
366 367 368 369 370 0
-371 -164 0
-371 -52 0
-371 -133 0
-371 159 0
-371 -123 0
371 164 52 133 -159 123 0
-372 -89 0
-372 -30 0
-372 39 0
-372 183 0
-372 -44 0
372 89 30 -39 -183 44 0
-373 -71 0
-373 -33 0
-373 10 0
-373 1 0
-373 30 0
373 71 33 -10 -1 -30 0
-374 -40 0
-374 -71 0
-374 70 0
-374 181 0
-374 36 0
374 40 71 -70 -181 -36 0
-375 52 0
-375 187 0
-375 -116 0
-375 33 0
-375 -128 0
375 -52 -187 116 -33 128 0
371 372 373 374 375 0
-376 -153 0
-376 173 0
-376 -38 0
-376 -2 0
-376 -57 0
376 153 -173 38 2 57 0
-377 35 0
-377 -62 0
-377 107 0
-377 -176 0
-377 -181 0
377 -35 62 -107 176 181 0
-378 79 0
-378 26 0
-378 -40 0
-378 119 0
-378 -141 0
378 -79 -26 40 -119 141 0
-379 -44 0
-379 69 0
-379 -126 0
-379 171 0
-379 -166 0
379 44 -69 126 -171 166 0
-380 -141 0
-380 -159 0
-380 -4 0
-380 -126 0
-380 -78 0
380 141 159 4 126 78 0
376 377 378 379 380 0
-381 -87 0
-381 82 0
-381 -83 0
-381 -95 0
-381 -14 0
381 87 -82 83 95 14 0
-382 -115 0
-382 143 0
-382 118 0
-382 31 0
-382 64 0
382 115 -143 -118 -31 -64 0
-383 35 0
-383 -45 0
-383 56 0
-383 73 0
-383 180 0
383 -35 45 -56 -73 -180 0
-384 -9 0
-384 115 0
-384 122 0
-384 178 0
-384 -6 0
384 9 -115 -122 -178 6 0
-385 -52 0
-385 89 0
-385 32 0
-385 20 0
-385 31 0
385 52 -89 -32 -20 -31 0
381 382 383 384 385 0
-386 109 0
-386 190 0
-386 31 0
-386 90 0
-386 -148 0
386 -109 -190 -31 -90 148 0
-387 -104 0
-387 113 0
-387 -157 0
-387 101 0
-387 78 0
387 104 -113 157 -101 -78 0
-388 74 0
-388 124 0
-388 158 0
-388 -61 0
-388 107 0
388 -74 -124 -158 61 -107 0
-389 179 0
-389 -153 0
-389 11 0
-389 -74 0
-389 171 0
389 -179 153 -11 74 -171 0
-390 160 0
-390 186 0
-390 -38 0
-390 184 0
-390 -121 0
390 -160 -186 38 -184 121 0
386 387 388 389 390 0
-391 -111 0
-391 -24 0
-391 -1 0
-391 -32 0
-391 -165 0
391 111 24 1 32 165 0
-392 -127 0
-392 -111 0
-392 -164 0
-392 152 0
-392 -104 0
392 127 111 164 -152 104 0
-393 129 0
-393 166 0
-393 32 0
-393 133 0
-393 -40 0
393 -129 -166 -32 -133 40 0
-394 140 0
-394 -1 0
-394 133 0
-394 75 0
-394 32 0
394 -140 1 -133 -75 -32 0
-395 -138 0
-395 -60 0
-395 17 0
-395 109 0
-395 22 0
395 138 60 -17 -109 -22 0
391 392 393 394 395 0
-396 -45 0
-396 -105 0
-396 -35 0
-396 -30 0
-396 -86 0
396 45 105 35 30 86 0
-397 -42 0
-397 -20 0
-397 -154 0
-397 -161 0
-397 -153 0
397 42 20 154 161 153 0
-398 -64 0
-398 -187 0
-398 104 0
-398 -51 0
-398 -24 0
398 64 187 -104 51 24 0
-399 -89 0
-399 -135 0
-399 61 0
-399 182 0
-399 119 0
399 89 135 -61 -182 -119 0
-400 89 0
-400 -66 0
-400 75 0
-400 95 0
-400 -76 0
400 -89 66 -75 -95 76 0
396 397 398 399 400 0
-401 -104 0
-401 -141 0
-401 16 0
-401 -168 0
-401 -146 0
401 104 141 -16 168 146 0
-402 -22 0
-402 -16 0
-402 66 0
-402 51 0
-402 122 0
402 22 16 -66 -51 -122 0
-403 -54 0
-403 -46 0
-403 -132 0
-403 -161 0
-403 -125 0
403 54 46 132 161 125 0
-404 -181 0
-404 -117 0
-404 -69 0
-404 112 0
-404 -166 0
404 181 117 69 -112 166 0
-405 63 0
-405 -62 0
-405 68 0
-405 -125 0
-405 164 0
405 -63 62 -68 125 -164 0
401 402 403 404 405 0
-406 -28 0
-406 147 0
-406 86 0
-406 176 0
-406 -115 0
406 28 -147 -86 -176 115 0
-407 188 0
-407 52 0
-407 -44 0
-407 -29 0
-407 174 0
407 -188 -52 44 29 -174 0
-408 106 0
-408 107 0
-408 19 0
-408 -138 0
-408 140 0
408 -106 -107 -19 138 -140 0
-409 76 0
-409 -32 0
-409 129 0
-409 103 0
-409 -91 0
409 -76 32 -129 -103 91 0
-410 127 0
-410 -99 0
-410 -3 0
-410 -4 0
-410 -78 0
410 -127 99 3 4 78 0
406 407 408 409 410 0
-411 158 0
-411 -88 0
-411 186 0
-411 110 0
-411 -167 0
411 -158 88 -186 -110 167 0
-412 7 0
-412 -183 0
-412 121 0
-412 109 0
-412 -125 0
412 -7 183 -121 -109 125 0
-413 53 0
-413 -142 0
-413 -31 0
-413 -128 0
-413 -186 0
413 -53 142 31 128 186 0
-414 64 0
-414 -33 0
-414 184 0
-414 94 0
-414 84 0
414 -64 33 -184 -94 -84 0
-415 -71 0
-415 -24 0
-415 115 0
-415 -46 0
-415 25 0
415 71 24 -115 46 -25 0
411 412 413 414 415 0
-416 -167 0
-416 10 0
-416 -177 0
-416 74 0
-416 1 0
416 167 -10 177 -74 -1 0
-417 -30 0
-417 -84 0
-417 36 0
-417 -160 0
-417 65 0
417 30 84 -36 160 -65 0
-418 -11 0
-418 10 0
-418 165 0
-418 105 0
-418 136 0
418 11 -10 -165 -105 -136 0
-419 64 0
-419 -177 0
-419 133 0
-419 125 0
-419 145 0
419 -64 177 -133 -125 -145 0
-420 -86 0
-420 4 0
-420 23 0
-420 3 0
-420 -17 0
420 86 -4 -23 -3 17 0
416 417 418 419 420 0
-421 4 0
-421 183 0
-421 118 0
-421 -140 0
-421 -76 0
421 -4 -183 -118 140 76 0
-422 -21 0
-422 -170 0
-422 -109 0
-422 -27 0
-422 -138 0
422 21 170 109 27 138 0
-423 -25 0
-423 -61 0
-423 4 0
-423 -79 0
-423 -120 0
423 25 61 -4 79 120 0
-424 179 0
-424 76 0
-424 43 0
-424 -145 0
-424 60 0
424 -179 -76 -43 145 -60 0
-425 -77 0
-425 -81 0
-425 -134 0
-425 155 0
-425 102 0
425 77 81 134 -155 -102 0
421 422 423 424 425 0
-426 -21 0
-426 -83 0
-426 157 0
-426 -177 0
-426 -44 0
426 21 83 -157 177 44 0
-427 -90 0
-427 77 0
-427 126 0
-427 44 0
-427 -46 0
427 90 -77 -126 -44 46 0
-428 -82 0
-428 126 0
-428 170 0
-428 11 0
-428 1 0
428 82 -126 -170 -11 -1 0
-429 173 0
-429 4 0
-429 -73 0
-429 157 0
-429 175 0
429 -173 -4 73 -157 -175 0
-430 -181 0
-430 -184 0
-430 -46 0
-430 36 0
-430 148 0
430 181 184 46 -36 -148 0
426 427 428 429 430 0
